$molecule
 0 1
N	1.1710407627	-0.9840618360	0.0000000000
C	1.2190300848	0.4059099856	0.0000000000
N	-0.0328079916	0.9869241337	0.0000000000
C	-1.2889429314	0.3481991121	0.0000000000
C	-1.1987276504	-1.1049030911	0.0000000000
C	0.0036738850	-1.7022349149	0.0000000000
H	2.0673345406	-1.4408916333	0.0000000000
O	2.2583702026	1.0223535594	0.0000000000
H	-0.0460905355	1.9980368940	0.0000000000
O	-2.3088409503	1.0011378772	0.0000000000
H	-2.1153350608	-1.6701857329	0.0000000000
H	0.1200273117	-2.7767536537	0.0000000000
$end

$rem
   METHOD            adc(2)
   BASIS             aug-cc-pvdz
   ee_singlets 	    [2,2]
   mem_total 180000
   mem_static 2000
   threads 12
   symmetry         false
$end
