$molecule
 0 1
C	2.4263501231	-0.7056037689	0.0000000000
C	2.4263501231	0.7056037689	0.0000000000
C	1.2376214393	1.4004977720	0.0000000000
C	0.0000000000	0.7148848658	0.0000000000
C	0.0000000000	-0.7148848658	0.0000000000
C	1.2376214393	-1.4004977720	0.0000000000
C	-1.2376214393	-1.4004977720	0.0000000000
C	-2.4263501231	-0.7056037689	0.0000000000
C	-2.4263501231	0.7056037689	0.0000000000
C	-1.2376214393	1.4004977720	0.0000000000
H	3.3655793057	-1.2419330757	0.0000000000
H	3.3655793057	1.2419330757	0.0000000000
H	1.2353527952	2.4836421100	0.0000000000
H	1.2353527952	-2.4836421100	0.0000000000
H	-1.2353527952	-2.4836421100	0.0000000000
H	-3.3655793057	-1.2419330757	0.0000000000
H	-3.3655793057	1.2419330757	0.0000000000
H	-1.2353527952	2.4836421100	0.0000000000
$end

$rem
   METHOD            adc(2)-x
   BASIS aug-cc-pvdz
   ee_singlets 	    [0,0,0,0,0,0,0,1]
   mem_total 490000
   mem_static 2000
   threads 24
   symmetry         false
   adc_davidson_maxiter 140
   thresh 14
$end
