$molecule
 0 1
C	0.0000000000	0.0000000000	0.7067572030
C	1.2195927633	0.0000000000	0.0169722341
C	1.2182354930	0.0000000000	-1.3785576094
C	0.0000000000	0.0000000000	-2.1022984644
C	-1.2182354930	0.0000000000	-1.3785576094
C	-1.2195927633	0.0000000000	0.0169722341
H	2.1553754221	0.0000000000	0.5783441717
H	2.1689860113	0.0000000000	-1.9216160742
H	-2.1689860113	0.0000000000	-1.9216160742
H	-2.1553754221	0.0000000000	0.5783441717
N	0.0000000000	0.0000000000	-3.4751838553
N	0.0000000000	0.0000000000	2.1763098305
O	-1.0841264669	0.0000000000	2.7410708406
O	1.0841264669	0.0000000000	2.7410708406
H	-0.8656098383	0.0000000000	-3.9919253642
H	0.8656098383	0.0000000000	-3.9919253642
$end

$rem
   METHOD            ccsd
   BASIS             aug-cc-pvdz
   CC_REF_PROP       true
   CC_EOM_PROP       true
   CC_POL            2 ! der
   CC_FULLRESPONSE   true ! Kaushik
   ee_singlets 	    [2,0,0,0]
   EOM_POL           2 ! der
   mem_total 470000
   threads 16
   symmetry         false
$end
