$molecule
 0 1
C	0.0000000000	0.0000000000	0.5325493576
H	0.9343700000	0.0000000000	1.1138904967
H	-0.9343700000	0.0000000000	1.1138904967
O	0.0000000000	0.0000000000	-0.6778846424
$end

$rem
   METHOD            adc(3)
   BASIS aug-cc-pvdz
   EE_SINGLETS       [0,0,1,0]
   symmetry         false
   mem_total 100000
   mem_static 2000
   threads 12
$end

